Output/4.txt
sat
((q_0_0 false))
((q_0_1 true))
((q_0_2 false))
((q_0_3 false))
((q_1_0 false))
((q_1_1 false))
((q_1_2 false))
((q_1_3 true))
((q_2_0 true))
((q_2_1 false))
((q_2_2 false))
((q_2_3 false))
((q_3_0 false))
((q_3_1 false))
((q_3_2 true))
((q_3_3 false))
